; benchmark generated from python API
(set-info :status unknown)
(declare-fun cell_1_3 () Int)
(declare-fun cell_1_4 () Int)
(declare-fun cell_2_1 () Int)
(declare-fun cell_2_5 () Int)
(declare-fun cell_3_7 () Int)
(declare-fun cell_3_8 () Int)
(declare-fun cell_4_6 () Int)
(declare-fun cell_5_9 () Int)
(declare-fun cell_6_2 () Int)
(declare-fun cell_7_5 () Int)
(declare-fun cell_8_8 () Int)
(declare-fun cell_9_3 () Int)
(declare-fun cell_1_1 () Int)
(declare-fun cell_3_1 () Int)
(declare-fun cell_4_1 () Int)
(declare-fun cell_5_1 () Int)
(declare-fun cell_6_1 () Int)
(declare-fun cell_7_1 () Int)
(declare-fun cell_8_1 () Int)
(declare-fun cell_9_1 () Int)
(declare-fun cell_1_2 () Int)
(declare-fun cell_2_2 () Int)
(declare-fun cell_3_2 () Int)
(declare-fun cell_4_2 () Int)
(declare-fun cell_5_2 () Int)
(declare-fun cell_7_2 () Int)
(declare-fun cell_8_2 () Int)
(declare-fun cell_9_2 () Int)
(declare-fun cell_2_3 () Int)
(declare-fun cell_3_3 () Int)
(declare-fun cell_4_3 () Int)
(declare-fun cell_5_3 () Int)
(declare-fun cell_6_3 () Int)
(declare-fun cell_7_3 () Int)
(declare-fun cell_8_3 () Int)
(declare-fun cell_2_4 () Int)
(declare-fun cell_3_4 () Int)
(declare-fun cell_4_4 () Int)
(declare-fun cell_5_4 () Int)
(declare-fun cell_6_4 () Int)
(declare-fun cell_7_4 () Int)
(declare-fun cell_8_4 () Int)
(declare-fun cell_9_4 () Int)
(declare-fun cell_1_5 () Int)
(declare-fun cell_3_5 () Int)
(declare-fun cell_4_5 () Int)
(declare-fun cell_5_5 () Int)
(declare-fun cell_6_5 () Int)
(declare-fun cell_8_5 () Int)
(declare-fun cell_9_5 () Int)
(declare-fun cell_1_6 () Int)
(declare-fun cell_2_6 () Int)
(declare-fun cell_3_6 () Int)
(declare-fun cell_5_6 () Int)
(declare-fun cell_6_6 () Int)
(declare-fun cell_7_6 () Int)
(declare-fun cell_8_6 () Int)
(declare-fun cell_9_6 () Int)
(declare-fun cell_1_7 () Int)
(declare-fun cell_2_7 () Int)
(declare-fun cell_4_7 () Int)
(declare-fun cell_5_7 () Int)
(declare-fun cell_6_7 () Int)
(declare-fun cell_7_7 () Int)
(declare-fun cell_8_7 () Int)
(declare-fun cell_9_7 () Int)
(declare-fun cell_1_8 () Int)
(declare-fun cell_2_8 () Int)
(declare-fun cell_4_8 () Int)
(declare-fun cell_5_8 () Int)
(declare-fun cell_6_8 () Int)
(declare-fun cell_7_8 () Int)
(declare-fun cell_9_8 () Int)
(declare-fun cell_1_9 () Int)
(declare-fun cell_2_9 () Int)
(declare-fun cell_3_9 () Int)
(declare-fun cell_4_9 () Int)
(declare-fun cell_6_9 () Int)
(declare-fun cell_7_9 () Int)
(declare-fun cell_8_9 () Int)
(declare-fun cell_9_9 () Int)
(assert
 (= cell_1_3 2))
(assert
 (= cell_1_4 1))
(assert
 (= cell_2_1 1))
(assert
 (= cell_2_5 2))
(assert
 (= cell_3_7 1))
(assert
 (= cell_3_8 2))
(assert
 (= cell_4_6 1))
(assert
 (= cell_5_9 1))
(assert
 (= cell_6_2 1))
(assert
 (= cell_7_5 1))
(assert
 (= cell_8_8 1))
(assert
 (= cell_9_3 1))
(assert
 (let (($x1727 (= cell_1_1 9)))
 (let (($x10258 (= cell_1_1 8)))
 (let (($x8528 (= cell_1_1 7)))
 (let (($x3665 (= cell_1_1 6)))
 (let (($x4585 (= cell_1_1 5)))
 (let (($x350 (= cell_1_1 4)))
 (let (($x7306 (= cell_1_1 3)))
 (let (($x615 (= cell_1_1 2)))
 (let (($x9408 (= cell_1_1 1)))
 (or $x9408 $x615 $x7306 $x350 $x4585 $x3665 $x8528 $x10258 $x1727)))))))))))
(assert
 (let (($x8909 (= cell_2_1 1)))
 (or $x8909 (= cell_2_1 2) (= cell_2_1 3) (= cell_2_1 4) (= cell_2_1 5) (= cell_2_1 6) (= cell_2_1 7) (= cell_2_1 8) (= cell_2_1 9))))
(assert
 (let (($x8396 (= cell_3_1 9)))
 (let (($x9788 (= cell_3_1 8)))
 (let (($x9517 (= cell_3_1 7)))
 (let (($x7929 (= cell_3_1 6)))
 (let (($x3208 (= cell_3_1 5)))
 (let (($x298 (= cell_3_1 4)))
 (let (($x6817 (= cell_3_1 3)))
 (let (($x10012 (= cell_3_1 2)))
 (let (($x4564 (= cell_3_1 1)))
 (or $x4564 $x10012 $x6817 $x298 $x3208 $x7929 $x9517 $x9788 $x8396)))))))))))
(assert
 (let (($x491 (= cell_4_1 9)))
 (let (($x1872 (= cell_4_1 8)))
 (let (($x109 (= cell_4_1 7)))
 (let (($x8019 (= cell_4_1 6)))
 (let (($x7703 (= cell_4_1 5)))
 (let (($x5859 (= cell_4_1 4)))
 (let (($x4632 (= cell_4_1 3)))
 (let (($x8474 (= cell_4_1 2)))
 (let (($x851 (= cell_4_1 1)))
 (or $x851 $x8474 $x4632 $x5859 $x7703 $x8019 $x109 $x1872 $x491)))))))))))
(assert
 (let (($x3167 (= cell_5_1 9)))
 (let (($x9594 (= cell_5_1 8)))
 (let (($x6947 (= cell_5_1 7)))
 (let (($x7016 (= cell_5_1 6)))
 (let (($x8926 (= cell_5_1 5)))
 (let (($x1189 (= cell_5_1 4)))
 (let (($x5548 (= cell_5_1 3)))
 (let (($x4263 (= cell_5_1 2)))
 (let (($x6331 (= cell_5_1 1)))
 (or $x6331 $x4263 $x5548 $x1189 $x8926 $x7016 $x6947 $x9594 $x3167)))))))))))
(assert
 (let (($x8594 (= cell_6_1 9)))
 (let (($x9690 (= cell_6_1 8)))
 (let (($x3261 (= cell_6_1 7)))
 (let (($x8139 (= cell_6_1 6)))
 (let (($x8393 (= cell_6_1 5)))
 (let (($x192 (= cell_6_1 4)))
 (let (($x1798 (= cell_6_1 3)))
 (let (($x373 (= cell_6_1 2)))
 (let (($x4611 (= cell_6_1 1)))
 (or $x4611 $x373 $x1798 $x192 $x8393 $x8139 $x3261 $x9690 $x8594)))))))))))
(assert
 (let (($x4218 (= cell_7_1 9)))
 (let (($x2916 (= cell_7_1 8)))
 (let (($x4888 (= cell_7_1 7)))
 (let (($x2986 (= cell_7_1 6)))
 (let (($x3922 (= cell_7_1 5)))
 (let (($x8079 (= cell_7_1 4)))
 (let (($x9679 (= cell_7_1 3)))
 (let (($x2968 (= cell_7_1 2)))
 (let (($x3333 (= cell_7_1 1)))
 (or $x3333 $x2968 $x9679 $x8079 $x3922 $x2986 $x4888 $x2916 $x4218)))))))))))
(assert
 (let (($x7934 (= cell_8_1 9)))
 (let (($x7916 (= cell_8_1 8)))
 (let (($x9524 (= cell_8_1 7)))
 (let (($x8206 (= cell_8_1 6)))
 (let (($x7924 (= cell_8_1 5)))
 (let (($x6972 (= cell_8_1 4)))
 (let (($x914 (= cell_8_1 3)))
 (let (($x157 (= cell_8_1 2)))
 (let (($x3935 (= cell_8_1 1)))
 (or $x3935 $x157 $x914 $x6972 $x7924 $x8206 $x9524 $x7916 $x7934)))))))))))
(assert
 (let (($x2787 (= cell_9_1 9)))
 (let (($x7698 (= cell_9_1 8)))
 (let (($x9978 (= cell_9_1 7)))
 (let (($x2580 (= cell_9_1 6)))
 (let (($x2364 (= cell_9_1 5)))
 (let (($x2257 (= cell_9_1 4)))
 (let (($x4698 (= cell_9_1 3)))
 (let (($x4537 (= cell_9_1 2)))
 (let (($x8941 (= cell_9_1 1)))
 (or $x8941 $x4537 $x4698 $x2257 $x2364 $x2580 $x9978 $x7698 $x2787)))))))))))
(assert
 (let (($x8820 (= cell_1_2 9)))
 (let (($x8824 (= cell_1_2 8)))
 (let (($x9287 (= cell_1_2 7)))
 (let (($x1297 (= cell_1_2 6)))
 (let (($x626 (= cell_1_2 5)))
 (let (($x3674 (= cell_1_2 4)))
 (let (($x5070 (= cell_1_2 3)))
 (let (($x9707 (= cell_1_2 2)))
 (let (($x8819 (= cell_1_2 1)))
 (or $x8819 $x9707 $x5070 $x3674 $x626 $x1297 $x9287 $x8824 $x8820)))))))))))
(assert
 (let (($x5349 (= cell_2_2 9)))
 (let (($x3587 (= cell_2_2 8)))
 (let (($x2571 (= cell_2_2 7)))
 (let (($x9062 (= cell_2_2 6)))
 (let (($x6958 (= cell_2_2 5)))
 (let (($x7137 (= cell_2_2 4)))
 (let (($x4028 (= cell_2_2 3)))
 (let (($x6629 (= cell_2_2 2)))
 (let (($x5964 (= cell_2_2 1)))
 (or $x5964 $x6629 $x4028 $x7137 $x6958 $x9062 $x2571 $x3587 $x5349)))))))))))
(assert
 (let (($x8837 (= cell_3_2 9)))
 (let (($x7638 (= cell_3_2 8)))
 (let (($x3695 (= cell_3_2 7)))
 (let (($x9343 (= cell_3_2 6)))
 (let (($x2351 (= cell_3_2 5)))
 (let (($x4754 (= cell_3_2 4)))
 (let (($x5232 (= cell_3_2 3)))
 (let (($x1115 (= cell_3_2 2)))
 (let (($x1172 (= cell_3_2 1)))
 (or $x1172 $x1115 $x5232 $x4754 $x2351 $x9343 $x3695 $x7638 $x8837)))))))))))
(assert
 (let (($x5755 (= cell_4_2 9)))
 (let (($x8422 (= cell_4_2 8)))
 (let (($x7479 (= cell_4_2 7)))
 (let (($x4014 (= cell_4_2 6)))
 (let (($x2244 (= cell_4_2 5)))
 (let (($x8515 (= cell_4_2 4)))
 (let (($x9064 (= cell_4_2 3)))
 (let (($x5658 (= cell_4_2 2)))
 (let (($x7510 (= cell_4_2 1)))
 (or $x7510 $x5658 $x9064 $x8515 $x2244 $x4014 $x7479 $x8422 $x5755)))))))))))
(assert
 (let (($x8773 (= cell_5_2 9)))
 (let (($x1094 (= cell_5_2 8)))
 (let (($x4386 (= cell_5_2 7)))
 (let (($x8272 (= cell_5_2 6)))
 (let (($x6154 (= cell_5_2 5)))
 (let (($x4712 (= cell_5_2 4)))
 (let (($x1456 (= cell_5_2 3)))
 (let (($x1357 (= cell_5_2 2)))
 (let (($x9749 (= cell_5_2 1)))
 (or $x9749 $x1357 $x1456 $x4712 $x6154 $x8272 $x4386 $x1094 $x8773)))))))))))
(assert
 (let (($x7544 (= cell_6_2 1)))
 (or $x7544 (= cell_6_2 2) (= cell_6_2 3) (= cell_6_2 4) (= cell_6_2 5) (= cell_6_2 6) (= cell_6_2 7) (= cell_6_2 8) (= cell_6_2 9))))
(assert
 (let (($x9234 (= cell_7_2 9)))
 (let (($x8034 (= cell_7_2 8)))
 (let (($x481 (= cell_7_2 7)))
 (let (($x6325 (= cell_7_2 6)))
 (let (($x2057 (= cell_7_2 5)))
 (let (($x1930 (= cell_7_2 4)))
 (let (($x9812 (= cell_7_2 3)))
 (let (($x5404 (= cell_7_2 2)))
 (let (($x10209 (= cell_7_2 1)))
 (or $x10209 $x5404 $x9812 $x1930 $x2057 $x6325 $x481 $x8034 $x9234)))))))))))
(assert
 (let (($x7567 (= cell_8_2 9)))
 (let (($x8847 (= cell_8_2 8)))
 (let (($x8355 (= cell_8_2 7)))
 (let (($x4397 (= cell_8_2 6)))
 (let (($x5017 (= cell_8_2 5)))
 (let (($x8858 (= cell_8_2 4)))
 (let (($x1440 (= cell_8_2 3)))
 (let (($x3703 (= cell_8_2 2)))
 (let (($x5934 (= cell_8_2 1)))
 (or $x5934 $x3703 $x1440 $x8858 $x5017 $x4397 $x8355 $x8847 $x7567)))))))))))
(assert
 (let (($x1487 (= cell_9_2 9)))
 (let (($x8916 (= cell_9_2 8)))
 (let (($x4726 (= cell_9_2 7)))
 (let (($x2780 (= cell_9_2 6)))
 (let (($x1158 (= cell_9_2 5)))
 (let (($x10188 (= cell_9_2 4)))
 (let (($x2847 (= cell_9_2 3)))
 (let (($x5931 (= cell_9_2 2)))
 (let (($x7437 (= cell_9_2 1)))
 (or $x7437 $x5931 $x2847 $x10188 $x1158 $x2780 $x4726 $x8916 $x1487)))))))))))
(assert
 (let (($x8152 (= cell_1_3 2)))
 (or (= cell_1_3 1) $x8152 (= cell_1_3 3) (= cell_1_3 4) (= cell_1_3 5) (= cell_1_3 6) (= cell_1_3 7) (= cell_1_3 8) (= cell_1_3 9))))
(assert
 (let (($x2046 (= cell_2_3 9)))
 (let (($x4536 (= cell_2_3 8)))
 (let (($x4653 (= cell_2_3 7)))
 (let (($x10044 (= cell_2_3 6)))
 (let (($x2763 (= cell_2_3 5)))
 (let (($x6457 (= cell_2_3 4)))
 (let (($x1022 (= cell_2_3 3)))
 (let (($x2243 (= cell_2_3 2)))
 (let (($x6633 (= cell_2_3 1)))
 (or $x6633 $x2243 $x1022 $x6457 $x2763 $x10044 $x4653 $x4536 $x2046)))))))))))
(assert
 (let (($x4972 (= cell_3_3 9)))
 (let (($x3241 (= cell_3_3 8)))
 (let (($x726 (= cell_3_3 7)))
 (let (($x10129 (= cell_3_3 6)))
 (let (($x9056 (= cell_3_3 5)))
 (let (($x8624 (= cell_3_3 4)))
 (let (($x9709 (= cell_3_3 3)))
 (let (($x3180 (= cell_3_3 2)))
 (let (($x409 (= cell_3_3 1)))
 (or $x409 $x3180 $x9709 $x8624 $x9056 $x10129 $x726 $x3241 $x4972)))))))))))
(assert
 (let (($x2458 (= cell_4_3 9)))
 (let (($x989 (= cell_4_3 8)))
 (let (($x3909 (= cell_4_3 7)))
 (let (($x3962 (= cell_4_3 6)))
 (let (($x7819 (= cell_4_3 5)))
 (let (($x3358 (= cell_4_3 4)))
 (let (($x1072 (= cell_4_3 3)))
 (let (($x2964 (= cell_4_3 2)))
 (let (($x3456 (= cell_4_3 1)))
 (or $x3456 $x2964 $x1072 $x3358 $x7819 $x3962 $x3909 $x989 $x2458)))))))))))
(assert
 (let (($x3715 (= cell_5_3 9)))
 (let (($x5564 (= cell_5_3 8)))
 (let (($x8114 (= cell_5_3 7)))
 (let (($x1187 (= cell_5_3 6)))
 (let (($x3669 (= cell_5_3 5)))
 (let (($x6912 (= cell_5_3 4)))
 (let (($x7659 (= cell_5_3 3)))
 (let (($x9019 (= cell_5_3 2)))
 (let (($x1508 (= cell_5_3 1)))
 (or $x1508 $x9019 $x7659 $x6912 $x3669 $x1187 $x8114 $x5564 $x3715)))))))))))
(assert
 (let (($x1280 (= cell_6_3 9)))
 (let (($x6492 (= cell_6_3 8)))
 (let (($x5105 (= cell_6_3 7)))
 (let (($x2421 (= cell_6_3 6)))
 (let (($x6467 (= cell_6_3 5)))
 (let (($x4289 (= cell_6_3 4)))
 (let (($x2578 (= cell_6_3 3)))
 (let (($x6007 (= cell_6_3 2)))
 (let (($x9305 (= cell_6_3 1)))
 (or $x9305 $x6007 $x2578 $x4289 $x6467 $x2421 $x5105 $x6492 $x1280)))))))))))
(assert
 (let (($x7967 (= cell_7_3 9)))
 (let (($x1102 (= cell_7_3 8)))
 (let (($x5400 (= cell_7_3 7)))
 (let (($x6665 (= cell_7_3 6)))
 (let (($x1319 (= cell_7_3 5)))
 (let (($x4366 (= cell_7_3 4)))
 (let (($x5417 (= cell_7_3 3)))
 (let (($x2529 (= cell_7_3 2)))
 (let (($x7797 (= cell_7_3 1)))
 (or $x7797 $x2529 $x5417 $x4366 $x1319 $x6665 $x5400 $x1102 $x7967)))))))))))
(assert
 (let (($x9634 (= cell_8_3 9)))
 (let (($x3910 (= cell_8_3 8)))
 (let (($x3610 (= cell_8_3 7)))
 (let (($x3190 (= cell_8_3 6)))
 (let (($x832 (= cell_8_3 5)))
 (let (($x4618 (= cell_8_3 4)))
 (let (($x2417 (= cell_8_3 3)))
 (let (($x1853 (= cell_8_3 2)))
 (let (($x1054 (= cell_8_3 1)))
 (or $x1054 $x1853 $x2417 $x4618 $x832 $x3190 $x3610 $x3910 $x9634)))))))))))
(assert
 (let (($x7845 (= cell_9_3 1)))
 (or $x7845 (= cell_9_3 2) (= cell_9_3 3) (= cell_9_3 4) (= cell_9_3 5) (= cell_9_3 6) (= cell_9_3 7) (= cell_9_3 8) (= cell_9_3 9))))
(assert
 (let (($x6657 (= cell_1_4 1)))
 (or $x6657 (= cell_1_4 2) (= cell_1_4 3) (= cell_1_4 4) (= cell_1_4 5) (= cell_1_4 6) (= cell_1_4 7) (= cell_1_4 8) (= cell_1_4 9))))
(assert
 (let (($x8838 (= cell_2_4 9)))
 (let (($x5306 (= cell_2_4 8)))
 (let (($x4088 (= cell_2_4 7)))
 (let (($x1834 (= cell_2_4 6)))
 (let (($x9442 (= cell_2_4 5)))
 (let (($x2062 (= cell_2_4 4)))
 (let (($x1751 (= cell_2_4 3)))
 (let (($x4893 (= cell_2_4 2)))
 (let (($x3956 (= cell_2_4 1)))
 (or $x3956 $x4893 $x1751 $x2062 $x9442 $x1834 $x4088 $x5306 $x8838)))))))))))
(assert
 (let (($x9892 (= cell_3_4 9)))
 (let (($x8185 (= cell_3_4 8)))
 (let (($x23 (= cell_3_4 7)))
 (let (($x699 (= cell_3_4 6)))
 (let (($x5960 (= cell_3_4 5)))
 (let (($x859 (= cell_3_4 4)))
 (let (($x2424 (= cell_3_4 3)))
 (let (($x3050 (= cell_3_4 2)))
 (let (($x7270 (= cell_3_4 1)))
 (or $x7270 $x3050 $x2424 $x859 $x5960 $x699 $x23 $x8185 $x9892)))))))))))
(assert
 (let (($x8443 (= cell_4_4 9)))
 (let (($x8456 (= cell_4_4 8)))
 (let (($x8549 (= cell_4_4 7)))
 (let (($x5496 (= cell_4_4 6)))
 (let (($x9571 (= cell_4_4 5)))
 (let (($x7859 (= cell_4_4 4)))
 (let (($x9957 (= cell_4_4 3)))
 (let (($x8227 (= cell_4_4 2)))
 (let (($x2230 (= cell_4_4 1)))
 (or $x2230 $x8227 $x9957 $x7859 $x9571 $x5496 $x8549 $x8456 $x8443)))))))))))
(assert
 (let (($x1331 (= cell_5_4 9)))
 (let (($x7001 (= cell_5_4 8)))
 (let (($x9434 (= cell_5_4 7)))
 (let (($x1450 (= cell_5_4 6)))
 (let (($x3284 (= cell_5_4 5)))
 (let (($x2593 (= cell_5_4 4)))
 (let (($x5683 (= cell_5_4 3)))
 (let (($x2410 (= cell_5_4 2)))
 (let (($x1033 (= cell_5_4 1)))
 (or $x1033 $x2410 $x5683 $x2593 $x3284 $x1450 $x9434 $x7001 $x1331)))))))))))
(assert
 (let (($x7556 (= cell_6_4 1)))
 (or $x7556 (= cell_6_4 2) (= cell_6_4 3) (= cell_6_4 4) (= cell_6_4 5) (= cell_6_4 6) (= cell_6_4 7) (= cell_6_4 8) (= cell_6_4 9))))
(assert
 (let (($x3289 (= cell_7_4 9)))
 (let (($x5434 (= cell_7_4 8)))
 (let (($x2819 (= cell_7_4 7)))
 (let (($x6732 (= cell_7_4 6)))
 (let (($x9219 (= cell_7_4 5)))
 (let (($x828 (= cell_7_4 4)))
 (let (($x5645 (= cell_7_4 3)))
 (let (($x10218 (= cell_7_4 2)))
 (let (($x2815 (= cell_7_4 1)))
 (or $x2815 $x10218 $x5645 $x828 $x9219 $x6732 $x2819 $x5434 $x3289)))))))))))
(assert
 (let (($x1784 (= cell_8_4 9)))
 (let (($x4846 (= cell_8_4 8)))
 (let (($x106 (= cell_8_4 7)))
 (let (($x6034 (= cell_8_4 6)))
 (let (($x8287 (= cell_8_4 5)))
 (let (($x8469 (= cell_8_4 4)))
 (let (($x5759 (= cell_8_4 3)))
 (let (($x4202 (= cell_8_4 2)))
 (let (($x4240 (= cell_8_4 1)))
 (or $x4240 $x4202 $x5759 $x8469 $x8287 $x6034 $x106 $x4846 $x1784)))))))))))
(assert
 (let (($x1827 (= cell_9_4 1)))
 (or $x1827 (= cell_9_4 2) (= cell_9_4 3) (= cell_9_4 4) (= cell_9_4 5) (= cell_9_4 6) (= cell_9_4 7) (= cell_9_4 8) (= cell_9_4 9))))
(assert
 (let (($x8715 (= cell_1_5 9)))
 (let (($x7218 (= cell_1_5 8)))
 (let (($x1037 (= cell_1_5 7)))
 (let (($x682 (= cell_1_5 6)))
 (let (($x7801 (= cell_1_5 5)))
 (let (($x9323 (= cell_1_5 4)))
 (let (($x5777 (= cell_1_5 3)))
 (let (($x9569 (= cell_1_5 2)))
 (let (($x9198 (= cell_1_5 1)))
 (or $x9198 $x9569 $x5777 $x9323 $x7801 $x682 $x1037 $x7218 $x8715)))))))))))
(assert
 (let (($x2055 (= cell_2_5 2)))
 (or (= cell_2_5 1) $x2055 (= cell_2_5 3) (= cell_2_5 4) (= cell_2_5 5) (= cell_2_5 6) (= cell_2_5 7) (= cell_2_5 8) (= cell_2_5 9))))
(assert
 (let (($x8303 (= cell_3_5 9)))
 (let (($x8208 (= cell_3_5 8)))
 (let (($x2996 (= cell_3_5 7)))
 (let (($x1240 (= cell_3_5 6)))
 (let (($x7865 (= cell_3_5 5)))
 (let (($x5955 (= cell_3_5 4)))
 (let (($x3203 (= cell_3_5 3)))
 (let (($x861 (= cell_3_5 2)))
 (let (($x2355 (= cell_3_5 1)))
 (or $x2355 $x861 $x3203 $x5955 $x7865 $x1240 $x2996 $x8208 $x8303)))))))))))
(assert
 (let (($x5505 (= cell_4_5 9)))
 (let (($x308 (= cell_4_5 8)))
 (let (($x8052 (= cell_4_5 7)))
 (let (($x2879 (= cell_4_5 6)))
 (let (($x9282 (= cell_4_5 5)))
 (let (($x3176 (= cell_4_5 4)))
 (let (($x9015 (= cell_4_5 3)))
 (let (($x8692 (= cell_4_5 2)))
 (let (($x5485 (= cell_4_5 1)))
 (or $x5485 $x8692 $x9015 $x3176 $x9282 $x2879 $x8052 $x308 $x5505)))))))))))
(assert
 (let (($x49 (= cell_5_5 9)))
 (let (($x2518 (= cell_5_5 8)))
 (let (($x3256 (= cell_5_5 7)))
 (let (($x7244 (= cell_5_5 6)))
 (let (($x312 (= cell_5_5 5)))
 (let (($x2076 (= cell_5_5 4)))
 (let (($x2660 (= cell_5_5 3)))
 (let (($x1169 (= cell_5_5 2)))
 (let (($x8497 (= cell_5_5 1)))
 (or $x8497 $x1169 $x2660 $x2076 $x312 $x7244 $x3256 $x2518 $x49)))))))))))
(assert
 (let (($x7368 (= cell_6_5 9)))
 (let (($x3713 (= cell_6_5 8)))
 (let (($x8973 (= cell_6_5 7)))
 (let (($x2665 (= cell_6_5 6)))
 (let (($x9460 (= cell_6_5 5)))
 (let (($x3461 (= cell_6_5 4)))
 (let (($x4371 (= cell_6_5 3)))
 (let (($x4982 (= cell_6_5 2)))
 (let (($x1513 (= cell_6_5 1)))
 (or $x1513 $x4982 $x4371 $x3461 $x9460 $x2665 $x8973 $x3713 $x7368)))))))))))
(assert
 (let (($x3362 (= cell_7_5 1)))
 (or $x3362 (= cell_7_5 2) (= cell_7_5 3) (= cell_7_5 4) (= cell_7_5 5) (= cell_7_5 6) (= cell_7_5 7) (= cell_7_5 8) (= cell_7_5 9))))
(assert
 (let (($x2382 (= cell_8_5 9)))
 (let (($x4732 (= cell_8_5 8)))
 (let (($x1370 (= cell_8_5 7)))
 (let (($x6307 (= cell_8_5 6)))
 (let (($x7297 (= cell_8_5 5)))
 (let (($x857 (= cell_8_5 4)))
 (let (($x8299 (= cell_8_5 3)))
 (let (($x1553 (= cell_8_5 2)))
 (let (($x2473 (= cell_8_5 1)))
 (or $x2473 $x1553 $x8299 $x857 $x7297 $x6307 $x1370 $x4732 $x2382)))))))))))
(assert
 (let (($x8159 (= cell_9_5 2)))
 (let (($x5425 (= cell_9_5 1)))
 (or $x5425 $x8159 (= cell_9_5 3) (= cell_9_5 4) (= cell_9_5 5) (= cell_9_5 6) (= cell_9_5 7) (= cell_9_5 8) (= cell_9_5 9)))))
(assert
 (let (($x414 (= cell_1_6 9)))
 (let (($x2691 (= cell_1_6 8)))
 (let (($x926 (= cell_1_6 7)))
 (let (($x6407 (= cell_1_6 6)))
 (let (($x3765 (= cell_1_6 5)))
 (let (($x4208 (= cell_1_6 4)))
 (let (($x7230 (= cell_1_6 3)))
 (let (($x7085 (= cell_1_6 2)))
 (let (($x1880 (= cell_1_6 1)))
 (or $x1880 $x7085 $x7230 $x4208 $x3765 $x6407 $x926 $x2691 $x414)))))))))))
(assert
 (let (($x10111 (= cell_2_6 9)))
 (let (($x1348 (= cell_2_6 8)))
 (let (($x2509 (= cell_2_6 7)))
 (let (($x5261 (= cell_2_6 6)))
 (let (($x5192 (= cell_2_6 5)))
 (let (($x8626 (= cell_2_6 4)))
 (let (($x9304 (= cell_2_6 3)))
 (let (($x10282 (= cell_2_6 2)))
 (let (($x3464 (= cell_2_6 1)))
 (or $x3464 $x10282 $x9304 $x8626 $x5192 $x5261 $x2509 $x1348 $x10111)))))))))))
(assert
 (let (($x9052 (= cell_3_6 9)))
 (let (($x6138 (= cell_3_6 8)))
 (let (($x121 (= cell_3_6 7)))
 (let (($x4495 (= cell_3_6 6)))
 (let (($x811 (= cell_3_6 5)))
 (let (($x5145 (= cell_3_6 4)))
 (let (($x1272 (= cell_3_6 3)))
 (let (($x8511 (= cell_3_6 2)))
 (let (($x5648 (= cell_3_6 1)))
 (or $x5648 $x8511 $x1272 $x5145 $x811 $x4495 $x121 $x6138 $x9052)))))))))))
(assert
 (let (($x9860 (= cell_4_6 1)))
 (or $x9860 (= cell_4_6 2) (= cell_4_6 3) (= cell_4_6 4) (= cell_4_6 5) (= cell_4_6 6) (= cell_4_6 7) (= cell_4_6 8) (= cell_4_6 9))))
(assert
 (let (($x6446 (= cell_5_6 9)))
 (let (($x1934 (= cell_5_6 8)))
 (let (($x9850 (= cell_5_6 7)))
 (let (($x5601 (= cell_5_6 6)))
 (let (($x3103 (= cell_5_6 5)))
 (let (($x4102 (= cell_5_6 4)))
 (let (($x399 (= cell_5_6 3)))
 (let (($x8545 (= cell_5_6 2)))
 (let (($x1687 (= cell_5_6 1)))
 (or $x1687 $x8545 $x399 $x4102 $x3103 $x5601 $x9850 $x1934 $x6446)))))))))))
(assert
 (let (($x8651 (= cell_6_6 1)))
 (or $x8651 (= cell_6_6 2) (= cell_6_6 3) (= cell_6_6 4) (= cell_6_6 5) (= cell_6_6 6) (= cell_6_6 7) (= cell_6_6 8) (= cell_6_6 9))))
(assert
 (let (($x1902 (= cell_7_6 1)))
 (or $x1902 (= cell_7_6 2) (= cell_7_6 3) (= cell_7_6 4) (= cell_7_6 5) (= cell_7_6 6) (= cell_7_6 7) (= cell_7_6 8) (= cell_7_6 9))))
(assert
 (let (($x3614 (= cell_8_6 9)))
 (let (($x9012 (= cell_8_6 8)))
 (let (($x4413 (= cell_8_6 7)))
 (let (($x299 (= cell_8_6 6)))
 (let (($x7017 (= cell_8_6 5)))
 (let (($x9385 (= cell_8_6 4)))
 (let (($x7050 (= cell_8_6 3)))
 (let (($x2592 (= cell_8_6 2)))
 (let (($x7012 (= cell_8_6 1)))
 (or $x7012 $x2592 $x7050 $x9385 $x7017 $x299 $x4413 $x9012 $x3614)))))))))))
(assert
 (let (($x1854 (= cell_9_6 1)))
 (or $x1854 (= cell_9_6 2) (= cell_9_6 3) (= cell_9_6 4) (= cell_9_6 5) (= cell_9_6 6) (= cell_9_6 7) (= cell_9_6 8) (= cell_9_6 9))))
(assert
 (let (($x8766 (= cell_1_7 9)))
 (let (($x3087 (= cell_1_7 8)))
 (let (($x9399 (= cell_1_7 7)))
 (let (($x2200 (= cell_1_7 6)))
 (let (($x4149 (= cell_1_7 5)))
 (let (($x8823 (= cell_1_7 4)))
 (let (($x6447 (= cell_1_7 3)))
 (let (($x3083 (= cell_1_7 2)))
 (let (($x8789 (= cell_1_7 1)))
 (or $x8789 $x3083 $x6447 $x8823 $x4149 $x2200 $x9399 $x3087 $x8766)))))))))))
(assert
 (let (($x5878 (= cell_2_7 9)))
 (let (($x5409 (= cell_2_7 8)))
 (let (($x6303 (= cell_2_7 7)))
 (let (($x3303 (= cell_2_7 6)))
 (let (($x9947 (= cell_2_7 5)))
 (let (($x3325 (= cell_2_7 4)))
 (let (($x401 (= cell_2_7 3)))
 (let (($x6183 (= cell_2_7 2)))
 (let (($x4820 (= cell_2_7 1)))
 (or $x4820 $x6183 $x401 $x3325 $x9947 $x3303 $x6303 $x5409 $x5878)))))))))))
(assert
 (let (($x8660 (= cell_3_7 1)))
 (or $x8660 (= cell_3_7 2) (= cell_3_7 3) (= cell_3_7 4) (= cell_3_7 5) (= cell_3_7 6) (= cell_3_7 7) (= cell_3_7 8) (= cell_3_7 9))))
(assert
 (let (($x5321 (= cell_4_7 9)))
 (let (($x10106 (= cell_4_7 8)))
 (let (($x8190 (= cell_4_7 7)))
 (let (($x3222 (= cell_4_7 6)))
 (let (($x8633 (= cell_4_7 5)))
 (let (($x5915 (= cell_4_7 4)))
 (let (($x8008 (= cell_4_7 3)))
 (let (($x1505 (= cell_4_7 2)))
 (let (($x5336 (= cell_4_7 1)))
 (or $x5336 $x1505 $x8008 $x5915 $x8633 $x3222 $x8190 $x10106 $x5321)))))))))))
(assert
 (let (($x2850 (= cell_5_7 9)))
 (let (($x1479 (= cell_5_7 8)))
 (let (($x722 (= cell_5_7 7)))
 (let (($x7548 (= cell_5_7 6)))
 (let (($x7058 (= cell_5_7 5)))
 (let (($x1385 (= cell_5_7 4)))
 (let (($x1213 (= cell_5_7 3)))
 (let (($x2664 (= cell_5_7 2)))
 (let (($x16 (= cell_5_7 1)))
 (or $x16 $x2664 $x1213 $x1385 $x7058 $x7548 $x722 $x1479 $x2850)))))))))))
(assert
 (let (($x533 (= cell_6_7 1)))
 (or $x533 (= cell_6_7 2) (= cell_6_7 3) (= cell_6_7 4) (= cell_6_7 5) (= cell_6_7 6) (= cell_6_7 7) (= cell_6_7 8) (= cell_6_7 9))))
(assert
 (let (($x6691 (= cell_7_7 9)))
 (let (($x6003 (= cell_7_7 8)))
 (let (($x3868 (= cell_7_7 7)))
 (let (($x393 (= cell_7_7 6)))
 (let (($x6824 (= cell_7_7 5)))
 (let (($x6605 (= cell_7_7 4)))
 (let (($x1814 (= cell_7_7 3)))
 (let (($x448 (= cell_7_7 2)))
 (let (($x1990 (= cell_7_7 1)))
 (or $x1990 $x448 $x1814 $x6605 $x6824 $x393 $x3868 $x6003 $x6691)))))))))))
(assert
 (let (($x536 (= cell_8_7 9)))
 (let (($x5879 (= cell_8_7 8)))
 (let (($x618 (= cell_8_7 7)))
 (let (($x5473 (= cell_8_7 6)))
 (let (($x3624 (= cell_8_7 5)))
 (let (($x3414 (= cell_8_7 4)))
 (let (($x10022 (= cell_8_7 3)))
 (let (($x8526 (= cell_8_7 2)))
 (let (($x370 (= cell_8_7 1)))
 (or $x370 $x8526 $x10022 $x3414 $x3624 $x5473 $x618 $x5879 $x536)))))))))))
(assert
 (let (($x2319 (= cell_9_7 1)))
 (or $x2319 (= cell_9_7 2) (= cell_9_7 3) (= cell_9_7 4) (= cell_9_7 5) (= cell_9_7 6) (= cell_9_7 7) (= cell_9_7 8) (= cell_9_7 9))))
(assert
 (let (($x7881 (= cell_1_8 9)))
 (let (($x9714 (= cell_1_8 8)))
 (let (($x1877 (= cell_1_8 7)))
 (let (($x6576 (= cell_1_8 6)))
 (let (($x3837 (= cell_1_8 5)))
 (let (($x3193 (= cell_1_8 4)))
 (let (($x641 (= cell_1_8 3)))
 (let (($x4928 (= cell_1_8 2)))
 (let (($x8717 (= cell_1_8 1)))
 (or $x8717 $x4928 $x641 $x3193 $x3837 $x6576 $x1877 $x9714 $x7881)))))))))))
(assert
 (let (($x4021 (= cell_2_8 9)))
 (let (($x8099 (= cell_2_8 8)))
 (let (($x3349 (= cell_2_8 7)))
 (let (($x7573 (= cell_2_8 6)))
 (let (($x9687 (= cell_2_8 5)))
 (let (($x1548 (= cell_2_8 4)))
 (let (($x7774 (= cell_2_8 3)))
 (let (($x9381 (= cell_2_8 2)))
 (let (($x5355 (= cell_2_8 1)))
 (or $x5355 $x9381 $x7774 $x1548 $x9687 $x7573 $x3349 $x8099 $x4021)))))))))))
(assert
 (let (($x9241 (= cell_3_8 2)))
 (or (= cell_3_8 1) $x9241 (= cell_3_8 3) (= cell_3_8 4) (= cell_3_8 5) (= cell_3_8 6) (= cell_3_8 7) (= cell_3_8 8) (= cell_3_8 9))))
(assert
 (let (($x1861 (= cell_4_8 9)))
 (let (($x6469 (= cell_4_8 8)))
 (let (($x603 (= cell_4_8 7)))
 (let (($x8573 (= cell_4_8 6)))
 (let (($x2910 (= cell_4_8 5)))
 (let (($x1688 (= cell_4_8 4)))
 (let (($x4622 (= cell_4_8 3)))
 (let (($x6654 (= cell_4_8 2)))
 (let (($x7004 (= cell_4_8 1)))
 (or $x7004 $x6654 $x4622 $x1688 $x2910 $x8573 $x603 $x6469 $x1861)))))))))))
(assert
 (let (($x1057 (= cell_5_8 9)))
 (let (($x6153 (= cell_5_8 8)))
 (let (($x1323 (= cell_5_8 7)))
 (let (($x3823 (= cell_5_8 6)))
 (let (($x9066 (= cell_5_8 5)))
 (let (($x7459 (= cell_5_8 4)))
 (let (($x2867 (= cell_5_8 3)))
 (let (($x9802 (= cell_5_8 2)))
 (let (($x2999 (= cell_5_8 1)))
 (or $x2999 $x9802 $x2867 $x7459 $x9066 $x3823 $x1323 $x6153 $x1057)))))))))))
(assert
 (let (($x4250 (= cell_6_8 9)))
 (let (($x5329 (= cell_6_8 8)))
 (let (($x784 (= cell_6_8 7)))
 (let (($x4695 (= cell_6_8 6)))
 (let (($x6982 (= cell_6_8 5)))
 (let (($x9182 (= cell_6_8 4)))
 (let (($x3214 (= cell_6_8 3)))
 (let (($x3173 (= cell_6_8 2)))
 (let (($x787 (= cell_6_8 1)))
 (or $x787 $x3173 $x3214 $x9182 $x6982 $x4695 $x784 $x5329 $x4250)))))))))))
(assert
 (let (($x956 (= cell_7_8 9)))
 (let (($x7701 (= cell_7_8 8)))
 (let (($x7248 (= cell_7_8 7)))
 (let (($x5040 (= cell_7_8 6)))
 (let (($x7095 (= cell_7_8 5)))
 (let (($x3133 (= cell_7_8 4)))
 (let (($x8732 (= cell_7_8 3)))
 (let (($x6584 (= cell_7_8 2)))
 (let (($x7220 (= cell_7_8 1)))
 (or $x7220 $x6584 $x8732 $x3133 $x7095 $x5040 $x7248 $x7701 $x956)))))))))))
(assert
 (let (($x7158 (= cell_8_8 1)))
 (or $x7158 (= cell_8_8 2) (= cell_8_8 3) (= cell_8_8 4) (= cell_8_8 5) (= cell_8_8 6) (= cell_8_8 7) (= cell_8_8 8) (= cell_8_8 9))))
(assert
 (let (($x2013 (= cell_9_8 2)))
 (let (($x8361 (= cell_9_8 1)))
 (or $x8361 $x2013 (= cell_9_8 3) (= cell_9_8 4) (= cell_9_8 5) (= cell_9_8 6) (= cell_9_8 7) (= cell_9_8 8) (= cell_9_8 9)))))
(assert
 (let (($x9842 (= cell_1_9 9)))
 (let (($x7588 (= cell_1_9 8)))
 (let (($x7914 (= cell_1_9 7)))
 (let (($x7121 (= cell_1_9 6)))
 (let (($x5147 (= cell_1_9 5)))
 (let (($x4134 (= cell_1_9 4)))
 (let (($x6925 (= cell_1_9 3)))
 (let (($x4760 (= cell_1_9 2)))
 (let (($x3351 (= cell_1_9 1)))
 (or $x3351 $x4760 $x6925 $x4134 $x5147 $x7121 $x7914 $x7588 $x9842)))))))))))
(assert
 (let (($x1294 (= cell_2_9 9)))
 (let (($x2516 (= cell_2_9 8)))
 (let (($x2310 (= cell_2_9 7)))
 (let (($x9969 (= cell_2_9 6)))
 (let (($x8494 (= cell_2_9 5)))
 (let (($x6986 (= cell_2_9 4)))
 (let (($x4606 (= cell_2_9 3)))
 (let (($x4744 (= cell_2_9 2)))
 (let (($x4194 (= cell_2_9 1)))
 (or $x4194 $x4744 $x4606 $x6986 $x8494 $x9969 $x2310 $x2516 $x1294)))))))))))
(assert
 (let (($x10211 (= cell_3_9 9)))
 (let (($x10203 (= cell_3_9 8)))
 (let (($x9775 (= cell_3_9 7)))
 (let (($x48 (= cell_3_9 6)))
 (let (($x6581 (= cell_3_9 5)))
 (let (($x1889 (= cell_3_9 4)))
 (let (($x8501 (= cell_3_9 3)))
 (let (($x7807 (= cell_3_9 2)))
 (let (($x8596 (= cell_3_9 1)))
 (or $x8596 $x7807 $x8501 $x1889 $x6581 $x48 $x9775 $x10203 $x10211)))))))))))
(assert
 (let (($x8671 (= cell_4_9 9)))
 (let (($x4999 (= cell_4_9 8)))
 (let (($x9661 (= cell_4_9 7)))
 (let (($x5239 (= cell_4_9 6)))
 (let (($x4552 (= cell_4_9 5)))
 (let (($x3188 (= cell_4_9 4)))
 (let (($x1810 (= cell_4_9 3)))
 (let (($x8913 (= cell_4_9 2)))
 (let (($x3441 (= cell_4_9 1)))
 (or $x3441 $x8913 $x1810 $x3188 $x4552 $x5239 $x9661 $x4999 $x8671)))))))))))
(assert
 (let (($x8112 (= cell_5_9 1)))
 (or $x8112 (= cell_5_9 2) (= cell_5_9 3) (= cell_5_9 4) (= cell_5_9 5) (= cell_5_9 6) (= cell_5_9 7) (= cell_5_9 8) (= cell_5_9 9))))
(assert
 (let (($x9643 (= cell_6_9 1)))
 (or $x9643 (= cell_6_9 2) (= cell_6_9 3) (= cell_6_9 4) (= cell_6_9 5) (= cell_6_9 6) (= cell_6_9 7) (= cell_6_9 8) (= cell_6_9 9))))
(assert
 (let (($x9929 (= cell_7_9 9)))
 (let (($x7027 (= cell_7_9 8)))
 (let (($x9586 (= cell_7_9 7)))
 (let (($x6558 (= cell_7_9 6)))
 (let (($x3460 (= cell_7_9 5)))
 (let (($x4801 (= cell_7_9 4)))
 (let (($x1110 (= cell_7_9 3)))
 (let (($x4836 (= cell_7_9 2)))
 (let (($x4639 (= cell_7_9 1)))
 (or $x4639 $x4836 $x1110 $x4801 $x3460 $x6558 $x9586 $x7027 $x9929)))))))))))
(assert
 (let (($x8925 (= cell_8_9 1)))
 (or $x8925 (= cell_8_9 2) (= cell_8_9 3) (= cell_8_9 4) (= cell_8_9 5) (= cell_8_9 6) (= cell_8_9 7) (= cell_8_9 8) (= cell_8_9 9))))
(assert
 (let (($x5090 (= cell_9_9 1)))
 (or $x5090 (= cell_9_9 2) (= cell_9_9 3) (= cell_9_9 4) (= cell_9_9 5) (= cell_9_9 6) (= cell_9_9 7) (= cell_9_9 8) (= cell_9_9 9))))
(assert
 (and (distinct cell_1_1 cell_1_2 cell_1_3 cell_1_4 cell_1_5 cell_1_6 cell_1_7 cell_1_8 cell_1_9) true))
(assert
 (and (distinct cell_2_1 cell_2_2 cell_2_3 cell_2_4 cell_2_5 cell_2_6 cell_2_7 cell_2_8 cell_2_9) true))
(assert
 (and (distinct cell_3_1 cell_3_2 cell_3_3 cell_3_4 cell_3_5 cell_3_6 cell_3_7 cell_3_8 cell_3_9) true))
(assert
 (and (distinct cell_4_1 cell_4_2 cell_4_3 cell_4_4 cell_4_5 cell_4_6 cell_4_7 cell_4_8 cell_4_9) true))
(assert
 (and (distinct cell_5_1 cell_5_2 cell_5_3 cell_5_4 cell_5_5 cell_5_6 cell_5_7 cell_5_8 cell_5_9) true))
(assert
 (and (distinct cell_6_1 cell_6_2 cell_6_3 cell_6_4 cell_6_5 cell_6_6 cell_6_7 cell_6_8 cell_6_9) true))
(assert
 (and (distinct cell_7_1 cell_7_2 cell_7_3 cell_7_4 cell_7_5 cell_7_6 cell_7_7 cell_7_8 cell_7_9) true))
(assert
 (and (distinct cell_8_1 cell_8_2 cell_8_3 cell_8_4 cell_8_5 cell_8_6 cell_8_7 cell_8_8 cell_8_9) true))
(assert
 (and (distinct cell_9_1 cell_9_2 cell_9_3 cell_9_4 cell_9_5 cell_9_6 cell_9_7 cell_9_8 cell_9_9) true))
(assert
 (and (distinct cell_1_1 cell_2_1 cell_3_1 cell_4_1 cell_5_1 cell_6_1 cell_7_1 cell_8_1 cell_9_1) true))
(assert
 (and (distinct cell_1_2 cell_2_2 cell_3_2 cell_4_2 cell_5_2 cell_6_2 cell_7_2 cell_8_2 cell_9_2) true))
(assert
 (and (distinct cell_1_3 cell_2_3 cell_3_3 cell_4_3 cell_5_3 cell_6_3 cell_7_3 cell_8_3 cell_9_3) true))
(assert
 (and (distinct cell_1_4 cell_2_4 cell_3_4 cell_4_4 cell_5_4 cell_6_4 cell_7_4 cell_8_4 cell_9_4) true))
(assert
 (and (distinct cell_1_5 cell_2_5 cell_3_5 cell_4_5 cell_5_5 cell_6_5 cell_7_5 cell_8_5 cell_9_5) true))
(assert
 (and (distinct cell_1_6 cell_2_6 cell_3_6 cell_4_6 cell_5_6 cell_6_6 cell_7_6 cell_8_6 cell_9_6) true))
(assert
 (and (distinct cell_1_7 cell_2_7 cell_3_7 cell_4_7 cell_5_7 cell_6_7 cell_7_7 cell_8_7 cell_9_7) true))
(assert
 (and (distinct cell_1_8 cell_2_8 cell_3_8 cell_4_8 cell_5_8 cell_6_8 cell_7_8 cell_8_8 cell_9_8) true))
(assert
 (and (distinct cell_1_9 cell_2_9 cell_3_9 cell_4_9 cell_5_9 cell_6_9 cell_7_9 cell_8_9 cell_9_9) true))
(assert
 (and (distinct cell_1_1 cell_1_2 cell_1_3 cell_2_1 cell_2_2 cell_2_3 cell_3_1 cell_3_2 cell_3_3) true))
(assert
 (and (distinct cell_1_4 cell_1_5 cell_1_6 cell_2_4 cell_2_5 cell_2_6 cell_3_4 cell_3_5 cell_3_6) true))
(assert
 (and (distinct cell_1_7 cell_1_8 cell_1_9 cell_2_7 cell_2_8 cell_2_9 cell_3_7 cell_3_8 cell_3_9) true))
(assert
 (and (distinct cell_4_1 cell_4_2 cell_4_3 cell_5_1 cell_5_2 cell_5_3 cell_6_1 cell_6_2 cell_6_3) true))
(assert
 (and (distinct cell_4_4 cell_4_5 cell_4_6 cell_5_4 cell_5_5 cell_5_6 cell_6_4 cell_6_5 cell_6_6) true))
(assert
 (and (distinct cell_4_7 cell_4_8 cell_4_9 cell_5_7 cell_5_8 cell_5_9 cell_6_7 cell_6_8 cell_6_9) true))
(assert
 (and (distinct cell_7_1 cell_7_2 cell_7_3 cell_8_1 cell_8_2 cell_8_3 cell_9_1 cell_9_2 cell_9_3) true))
(assert
 (and (distinct cell_7_4 cell_7_5 cell_7_6 cell_8_4 cell_8_5 cell_8_6 cell_9_4 cell_9_5 cell_9_6) true))
(assert
 (and (distinct cell_7_7 cell_7_8 cell_7_9 cell_8_7 cell_8_8 cell_8_9 cell_9_7 cell_9_8 cell_9_9) true))
(assert
 (let (($x6790 (and (distinct cell_5_9 cell_6_8 cell_7_7 cell_8_6) true)))
 (let (($x2873 (and (distinct cell_2_9 cell_3_8 cell_4_7 cell_5_6 cell_6_5 cell_7_4 cell_8_3 cell_9_2) true)))
 (let (($x802 (and (distinct cell_1_8 cell_2_7 cell_3_6 cell_4_5 cell_5_4 cell_6_3 cell_7_2 cell_8_1) true)))
 (let (($x1873 (and (distinct cell_1_5 cell_2_4 cell_3_3 cell_4_2) true)))
 (let (($x4591 (and (distinct cell_5_1 cell_6_2 cell_7_3 cell_8_4) true)))
 (let (($x785 (and (distinct cell_2_1 cell_3_2 cell_4_3 cell_5_4 cell_6_5 cell_7_6 cell_8_7 cell_9_8) true)))
 (let (($x7486 (and (distinct cell_1_2 cell_2_3 cell_3_4 cell_4_5 cell_5_6 cell_6_7 cell_7_8 cell_8_9) true)))
 (let (($x8680 (and (distinct cell_1_5 cell_2_6 cell_3_7 cell_4_8) true)))
 (and $x8680 $x7486 $x785 $x4591 $x1873 $x802 $x2873 $x6790))))))))))
(assert
 (and (distinct cell_4_4 2) true))
(check-sat)
